GPU_version/outputs/c103.out
Total number of lines in the file: 110
Total number of nodes including depot: 101
Customer 1: (40, 50), Demand: 0, Time Window: [0, 1236], Service Time: 0
Customer 2: (45, 68), Demand: 10, Time Window: [0, 1127], Service Time: 90
Customer 3: (45, 70), Demand: 30, Time Window: [0, 1125], Service Time: 90
Customer 4: (42, 66), Demand: 10, Time Window: [0, 1129], Service Time: 90
Customer 5: (42, 68), Demand: 10, Time Window: [727, 782], Service Time: 90
calling MST kernel
Post Processing Route
Post 2 opt Processing Route
2-opt between 17 and 18 improved cost from 1629.06 to 1627.55
Elapsed time: 0.626975 seconds
Final Route: 
Route #1: 20 21 22 
Route #2: 25 27 29 34 36 
Route #3: 39 
Route #4: 38 37 
Route #5: 33 32 31 
Route #6: 35 24 23 
Route #7: 10 11 
Route #8: 8 9 6 4 1 2 98 
Route #9: 96 95 94 93 
Route #10: 92 97 100 99 91 89 
Route #11: 88 85 
Route #12: 84 83 82 81 
Route #13: 78 76 71 70 73 77 79 80 
Route #14: 87 86 90 3 5 75 7 
Route #15: 13 17 18 19 15 16 14 12 26 
Route #16: 28 30 
Route #17: 67 65 63 62 74 61 72 64 68 
Route #18: 40 
Route #19: 41 
Route #20: 42 43 44 45 48 50 51 46 47 
Route #21: 49 52 
Route #22: 55 54 53 56 58 60 57 59 
Route #23: 66 69 
Route #24: Total Distance: 1629.06
Final route is valid
