outputs/c103.txt.out
filename: C103
Vehicles: 25, Capacity: 200
Total customers : 101
No of routes: 21
Route #1: 67 65 63 62 66 69
Route #2: 74 72 61 64 68
Route #3: 55 54 53 56 58 60 59 57
Route #4: 40
Route #5: 41
Route #6: 43 42 44 45 46 47 49 52
Route #7: 48 51 50 20 22 21
Route #8: 25 27 29 34 36
Route #9: 39
Route #10: 38 37
Route #11: 32 33 31
Route #12: 35 24 23
Route #13: 10 11
Route #14: 13 17 18 19 15 16 14 12
Route #15: 8 9 6 4 1 2 98
Route #16: 96 93 94 95
Route #17: 92 97 100 99 91 89 90
Route #18: 87 86 85 88
Route #19: 84 83 82 81
Route #20: 78 76 71 70 73 77 79 80 75 3 5
Route #21: 7 30 28 26
Cost 1568
